RT is False
Default write of storage_offers_DA.csv just to have a file (but constraint should be inactive)
Reading model...
...model read.
creating competitive generators file...
...competitive generators recorded.
Loading data...
.. day-ahead data with real-time VRE data read.
Compiling instance...
...instance created.
Creating Offer Mitigation (model will solve as dispatch if TRUE)...
NOTE: storage offers will not be mitigated
...storage offer mitigation file created
Converting model to MPEC...
...converted
NOTE: initial MIP solve with only storage competitive to get feasible solution
Solving...

Welcome to IBM(R) ILOG(R) CPLEX(R) Interactive Optimizer 12.9.0.0
  with Simplex, Mixed Integer & Barrier Optimizers
5725-A06 5725-A29 5724-Y48 5724-Y49 5724-Y54 5724-Y55 5655-Y21
Copyright IBM Corp. 1988, 2019.  All Rights Reserved.

Type 'help' for a list of available commands.
Type 'help' followed by a command name for more
information on commands.

CPLEX> Logfile 'cplex.log' closed.
Logfile 'C:\Users\llavin\Desktop\test826\logs\tmp2wq_si71.cplex.log' open.
CPLEX> New value for parallel optimization mode: -1
CPLEX> New value for emphasis for MIP optimization: 1
CPLEX> New value for mixed integer optimality gap tolerance: 0.01
CPLEX> New value for integrality tolerance: 1e-12
CPLEX> New value for deterministic time limit in ticks: 75000
CPLEX> Problem 'C:\Users\llavin\Desktop\test826\logs\tmpei19zpl5.pyomo.lp' read.
Read time = 0.23 sec. (13.92 ticks)
CPLEX> Problem name         : C:\Users\llavin\Desktop\test826\logs\tmpei19zpl5.pyomo.lp
Objective sense      : Maximize
Variables            :   53809  [Nneg: 1,  Box: 22004,  Free: 4464,
                                 Binary: 27340]
Objective nonzeros   :    9032
Linear constraints   :  123253  [Less: 41346,  Greater: 59096,  Equal: 22811]
  Nonzeros           :  293220
  RHS nonzeros       :   67494

Variables            : Min LB: -5000.000        Max UB: 1000000.       
Objective nonzeros   : Min   : 0.008333333      Max   : 2500.000       
Linear constraints   :
  Nonzeros           : Min   : 0.008333333      Max   : 1000000.       
  RHS nonzeros       : Min   : 0.008333333      Max   : 1000000.       
CPLEX> CPXPARAM_Parallel                                -1
CPXPARAM_Emphasis_MIP                            1
CPXPARAM_DetTimeLimit                            75000
CPXPARAM_MIP_Tolerances_MIPGap                   0.01
CPXPARAM_MIP_Tolerances_Integrality              9.9999999999999998e-13
Tried aggregator 4 times.
MIP Presolve eliminated 88662 rows and 18968 columns.
MIP Presolve added 3382 rows and 0 columns.
MIP Presolve modified 24857 coefficients.
Aggregator did 13011 substitutions.
Reduced MIP has 24962 rows, 21277 columns, and 71814 nonzeros.
Reduced MIP has 8417 binaries, 0 generals, 0 SOSs, and 0 indicators.
Presolve time = 0.33 sec. (192.69 ticks)
Probing fixed 383 vars, tightened 3902 bounds.
Probing time = 0.08 sec. (18.93 ticks)
Tried aggregator 2 times.
MIP Presolve eliminated 867 rows and 767 columns.
MIP Presolve modified 3037 coefficients.
Aggregator did 24 substitutions.
Reduced MIP has 24071 rows, 20486 columns, and 69236 nonzeros.
Reduced MIP has 8034 binaries, 0 generals, 0 SOSs, and 0 indicators.
Presolve time = 0.11 sec. (89.58 ticks)
Probing fixed 0 vars, tightened 256 bounds.
Probing time = 0.13 sec. (22.44 ticks)
Clique table members: 44801.
MIP emphasis: integer feasibility.
MIP search method: dynamic search.
Parallel mode: opportunistic, using up to 32 threads.
Root relaxation solution time = 0.39 sec. (591.73 ticks)

        Nodes                                         Cuts/
   Node  Left     Objective  IInf  Best Integer    Best Bound    ItCnt     Gap

      0     0        0.0000    69                      0.0000     5087         
*     0+    0                            0.0000        0.0000             0.00%
      0     0        cutoff              0.0000        0.0000     5087    0.00%
Elapsed time = 1.64 sec. (1303.78 ticks, tree = 0.01 MB, solutions = 1)

Root node processing (before b&c):
  Real time             =    1.66 sec. (1305.72 ticks)
Parallel b&c, 32 threads:
  Real time             =    0.00 sec. (0.00 ticks)
  Sync time (average)   =    0.00 sec.
  Wait time (average)   =    0.00 sec.
                          ------------
Total (root+branch&cut) =    1.66 sec. (1305.72 ticks)

Solution pool: 1 solution saved.

MIP - Integer optimal solution:  Objective =  1.6398189473e-09
Solution time =    1.67 sec.  Iterations = 5087  Nodes = 0
Deterministic time = 1305.88 ticks  (781.03 ticks/sec)

CPLEX> Incumbent solution written to file 'C:\Users\llavin\Desktop\test826\logs\tmpcwd03884.cplex.sol'.
CPLEX> NOTE: no warmstart specified for MIP iteration, default behavior is true
NOTE: resolving with all competitive generators using storage-only solution to warmstart
Solving...

Welcome to IBM(R) ILOG(R) CPLEX(R) Interactive Optimizer 12.9.0.0
  with Simplex, Mixed Integer & Barrier Optimizers
5725-A06 5725-A29 5724-Y48 5724-Y49 5724-Y54 5724-Y55 5655-Y21
Copyright IBM Corp. 1988, 2019.  All Rights Reserved.

Type 'help' for a list of available commands.
Type 'help' followed by a command name for more
information on commands.

CPLEX> Logfile 'cplex.log' closed.
Logfile 'C:\Users\llavin\Desktop\test826\logs\tmpftw9xpna.cplex.log' open.
CPLEX> New value for parallel optimization mode: -1
CPLEX> New value for emphasis for MIP optimization: 1
CPLEX> New value for mixed integer optimality gap tolerance: 0.01
CPLEX> New value for integrality tolerance: 1e-12
CPLEX> New value for deterministic time limit in ticks: 75000
CPLEX> Problem 'C:\Users\llavin\Desktop\test826\logs\tmpk6qwf28_.pyomo.lp' read.
Read time = 0.23 sec. (13.94 ticks)
CPLEX> MIP start file 'C:\Users\llavin\Desktop\test826\logs\tmp5wvrhvhn.cplex.mst' read.
CPLEX> Problem name         : C:\Users\llavin\Desktop\test826\logs\tmpk6qwf28_.pyomo.lp
Objective sense      : Maximize
Variables            :   54529  [Nneg: 1,  Box: 22724,  Free: 4464,
                                 Binary: 27340]
Objective nonzeros   :    9728
Linear constraints   :  123253  [Less: 41346,  Greater: 59096,  Equal: 22811]
  Nonzeros           :  293220
  RHS nonzeros       :   67494

Variables            : Min LB: -5000.000        Max UB: 1000000.       
Objective nonzeros   : Min   : 0.008333333      Max   : 2500.000       
Linear constraints   :
  Nonzeros           : Min   : 0.008333333      Max   : 1000000.       
  RHS nonzeros       : Min   : 0.008333333      Max   : 1000000.       
CPLEX> CPXPARAM_Parallel                                -1
CPXPARAM_Emphasis_MIP                            1
CPXPARAM_DetTimeLimit                            75000
CPXPARAM_MIP_Tolerances_MIPGap                   0.01
CPXPARAM_MIP_Tolerances_Integrality              9.9999999999999998e-13
Warning:  No solution found from 1 MIP starts.
Retaining values of one MIP start for possible repair.
Tried aggregator 4 times.
MIP Presolve eliminated 88662 rows and 19688 columns.
MIP Presolve added 3382 rows and 0 columns.
MIP Presolve modified 24857 coefficients.
Aggregator did 13011 substitutions.
Reduced MIP has 24962 rows, 21277 columns, and 71814 nonzeros.
Reduced MIP has 8417 binaries, 0 generals, 0 SOSs, and 0 indicators.
Presolve time = 0.31 sec. (193.10 ticks)
Probing fixed 383 vars, tightened 3902 bounds.
Probing time = 0.08 sec. (18.93 ticks)
Tried aggregator 2 times.
MIP Presolve eliminated 867 rows and 767 columns.
MIP Presolve modified 3037 coefficients.
Aggregator did 24 substitutions.
Reduced MIP has 24071 rows, 20486 columns, and 69236 nonzeros.
Reduced MIP has 8034 binaries, 0 generals, 0 SOSs, and 0 indicators.
Presolve time = 0.11 sec. (89.59 ticks)
Probing fixed 0 vars, tightened 256 bounds.
Probing time = 0.14 sec. (22.44 ticks)
Clique table members: 44801.
MIP emphasis: integer feasibility.
MIP search method: dynamic search.
Parallel mode: opportunistic, using up to 32 threads.
Root relaxation solution time = 0.44 sec. (631.49 ticks)

        Nodes                                         Cuts/
   Node  Left     Objective  IInf  Best Integer    Best Bound    ItCnt     Gap

      0     0   129401.3910   229                 129401.3910     5548         
      0     0   117952.5347   181                   Cuts: 140     5756         
      0     0   116856.6881   174                    Cuts: 68     5819         
      0     0   116739.1239   178                    Cuts: 11     5833         
Repair heuristic found nothing.
      0     2   116739.1239   178                     Cuts: 3     5833         
Elapsed time = 4.47 sec. (1840.25 ticks, tree = 0.02 MB, solutions = 0)
    650   320    81756.7179    98                 111674.0144     9280         
   1244   892    18860.7203    83                 111674.0144    18216         
   1825  1105   -25487.2343    45                 111674.0144    22807         
   2441  1325    infeasible                       111674.0144    27769         
   3132  1735    infeasible                       111318.4213    45965         
   3823  1748     4231.8605    78                 111318.4213    46004         
   4473  1992     8838.4972    55                 111318.4213    60306         
   5080  2771   -21855.8272    39                 111318.4213    87637         
   5703  2788    infeasible                       111318.4213    87881         
*  7527  4055      integral     0     7173.8427   110704.9302   123307     --- 
   8237  2729    18597.5920    65     7173.8427   110651.1860   147289     --- 
Elapsed time = 20.80 sec. (4943.93 ticks, tree = 77.69 MB, solutions = 1)
   8597  3063        cutoff           7173.8427    63072.3091   182139  779.20%
  10571   688    11571.6710    38     7173.8427    56905.8227   216687  693.24%
  13421   287        cutoff           7173.8427    34168.9599   262075  376.30%

Clique cuts applied:  1
Cover cuts applied:  16
Implied bound cuts applied:  51
Flow cuts applied:  167
Mixed integer rounding cuts applied:  18
Lift and project cuts applied:  17
Gomory fractional cuts applied:  3

Root node processing (before b&c):
  Real time             =    2.66 sec. (1789.45 ticks)
Parallel b&c, 32 threads:
  Real time             =   34.22 sec. (8631.60 ticks)
  Sync time (average)   =    1.89 sec.
  Wait time (average)   =    0.24 sec.
                          ------------
Total (root+branch&cut) =   36.88 sec. (10421.05 ticks)

Solution pool: 1 solution saved.

MIP - Integer optimal, tolerance (0.01/1e-06):  Objective =  7.1738426980e+03
Current MIP best bound =  7.2234417650e+03 (gap = 49.5991, 0.69%)
Solution time =   36.92 sec.  Iterations = 285867  Nodes = 14400 (4)
Deterministic time = 10421.21 ticks  (282.26 ticks/sec)

CPLEX> Incumbent solution written to file 'C:\Users\llavin\Desktop\test826\logs\tmpu6h1fljp.cplex.sol'.
CPLEX> Exporting results... 
